experiment/data/hgs-res/Vrp-Set-Golden-n256/Vrp-Set-Golden-n256-hgs/0.hgs1.vrp
NAME : 0
COMMENT : CVRP Instance
TYPE : CVRP
DIMENSION : 256
EDGE_WEIGHT_TYPE : EUC_2D
CAPACITY : 1000
NODE_COORD_SECTION
1	0.0	-15.0
2	-1.0	-14.0
3	1.0	-14.0
4	-2.0	-13.0
5	0.0	-13.0
6	2.0	-13.0
7	-3.0	-12.0
8	-1.0	-12.0
9	1.0	-12.0
10	3.0	-12.0
11	-4.0	-11.0
12	-2.0	-11.0
13	0.0	-11.0
14	2.0	-11.0
15	4.0	-11.0
16	-5.0	-10.0
17	-3.0	-10.0
18	-1.0	-10.0
19	1.0	-10.0
20	3.0	-10.0
21	5.0	-10.0
22	-6.0	-9.0
23	-4.0	-9.0
24	-2.0	-9.0
25	0.0	-9.0
26	2.0	-9.0
27	4.0	-9.0
28	6.0	-9.0
29	-7.0	-8.0
30	-5.0	-8.0
31	-3.0	-8.0
32	-1.0	-8.0
33	1.0	-8.0
34	3.0	-8.0
35	5.0	-8.0
36	7.0	-8.0
37	-8.0	-7.0
38	-6.0	-7.0
39	-4.0	-7.0
40	-2.0	-7.0
41	0.0	-7.0
42	2.0	-7.0
43	4.0	-7.0
44	6.0	-7.0
45	8.0	-7.0
46	-9.0	-6.0
47	-7.0	-6.0
48	-5.0	-6.0
49	-3.0	-6.0
50	-1.0	-6.0
51	1.0	-6.0
52	3.0	-6.0
53	5.0	-6.0
54	7.0	-6.0
55	9.0	-6.0
56	-10.0	-5.0
57	-8.0	-5.0
58	-6.0	-5.0
59	-4.0	-5.0
60	-2.0	-5.0
61	0.0	-5.0
62	2.0	-5.0
63	4.0	-5.0
64	6.0	-5.0
65	8.0	-5.0
66	10.0	-5.0
67	-11.0	-4.0
68	-9.0	-4.0
69	-7.0	-4.0
70	-5.0	-4.0
71	-3.0	-4.0
72	-1.0	-4.0
73	1.0	-4.0
74	3.0	-4.0
75	5.0	-4.0
76	7.0	-4.0
77	9.0	-4.0
78	11.0	-4.0
79	-12.0	-3.0
80	-10.0	-3.0
81	-8.0	-3.0
82	-6.0	-3.0
83	-4.0	-3.0
84	-2.0	-3.0
85	0.0	-3.0
86	2.0	-3.0
87	4.0	-3.0
88	6.0	-3.0
89	8.0	-3.0
90	10.0	-3.0
91	12.0	-3.0
92	-13.0	-2.0
93	-11.0	-2.0
94	-9.0	-2.0
95	-7.0	-2.0
96	-5.0	-2.0
97	-3.0	-2.0
98	-1.0	-2.0
99	1.0	-2.0
100	3.0	-2.0
101	5.0	-2.0
102	7.0	-2.0
103	9.0	-2.0
104	11.0	-2.0
105	13.0	-2.0
106	-14.0	-1.0
107	-12.0	-1.0
108	-10.0	-1.0
109	-8.0	-1.0
110	-6.0	-1.0
111	-4.0	-1.0
112	-2.0	-1.0
113	0.0	-1.0
114	2.0	-1.0
115	4.0	-1.0
116	6.0	-1.0
117	8.0	-1.0
118	10.0	-1.0
119	12.0	-1.0
120	14.0	-1.0
121	-15.0	0.0
122	-13.0	0.0
123	-11.0	0.0
124	-9.0	0.0
125	-7.0	0.0
126	-5.0	0.0
127	-3.0	0.0
128	-1.0	0.0
129	1.0	0.0
130	3.0	0.0
131	5.0	0.0
132	7.0	0.0
133	9.0	0.0
134	11.0	0.0
135	13.0	0.0
136	15.0	0.0
137	-14.0	1.0
138	-12.0	1.0
139	-10.0	1.0
140	-8.0	1.0
141	-6.0	1.0
142	-4.0	1.0
143	-2.0	1.0
144	0.0	1.0
145	2.0	1.0
146	4.0	1.0
147	6.0	1.0
148	8.0	1.0
149	10.0	1.0
150	12.0	1.0
151	14.0	1.0
152	-13.0	2.0
153	-11.0	2.0
154	-9.0	2.0
155	-7.0	2.0
156	-5.0	2.0
157	-3.0	2.0
158	-1.0	2.0
159	1.0	2.0
160	3.0	2.0
161	5.0	2.0
162	7.0	2.0
163	9.0	2.0
164	11.0	2.0
165	13.0	2.0
166	-12.0	3.0
167	-10.0	3.0
168	-8.0	3.0
169	-6.0	3.0
170	-4.0	3.0
171	-2.0	3.0
172	0.0	3.0
173	2.0	3.0
174	4.0	3.0
175	6.0	3.0
176	8.0	3.0
177	10.0	3.0
178	12.0	3.0
179	-11.0	4.0
180	-9.0	4.0
181	-7.0	4.0
182	-5.0	4.0
183	-3.0	4.0
184	-1.0	4.0
185	1.0	4.0
186	3.0	4.0
187	5.0	4.0
188	7.0	4.0
189	9.0	4.0
190	11.0	4.0
191	-10.0	5.0
192	-8.0	5.0
193	-6.0	5.0
194	-4.0	5.0
195	-2.0	5.0
196	0.0	5.0
197	2.0	5.0
198	4.0	5.0
199	6.0	5.0
200	8.0	5.0
201	10.0	5.0
202	-9.0	6.0
203	-7.0	6.0
204	-5.0	6.0
205	-3.0	6.0
206	-1.0	6.0
207	1.0	6.0
208	3.0	6.0
209	5.0	6.0
210	7.0	6.0
211	9.0	6.0
212	-8.0	7.0
213	-6.0	7.0
214	-4.0	7.0
215	-2.0	7.0
216	0.0	7.0
217	2.0	7.0
218	4.0	7.0
219	6.0	7.0
220	8.0	7.0
221	-7.0	8.0
222	-5.0	8.0
223	-3.0	8.0
224	-1.0	8.0
225	1.0	8.0
226	3.0	8.0
227	5.0	8.0
228	7.0	8.0
229	-6.0	9.0
230	-4.0	9.0
231	-2.0	9.0
232	0.0	9.0
233	2.0	9.0
234	4.0	9.0
235	6.0	9.0
236	-5.0	10.0
237	-3.0	10.0
238	-1.0	10.0
239	1.0	10.0
240	3.0	10.0
241	5.0	10.0
242	-4.0	11.0
243	-2.0	11.0
244	0.0	11.0
245	2.0	11.0
246	4.0	11.0
247	-3.0	12.0
248	-1.0	12.0
249	1.0	12.0
250	3.0	12.0
251	-2.0	13.0
252	0.0	13.0
253	2.0	13.0
254	-1.0	14.0
255	1.0	14.0
256	0.0	15.0
DEMAND_SECTION
1	0
2	300
3	300
4	180
5	300
6	180
7	128
8	180
9	180
10	128
11	100
12	128
13	180
14	128
15	100
16	81
17	100
18	128
19	128
20	100
21	81
22	69
23	81
24	100
25	128
26	100
27	81
28	69
29	60
30	69
31	81
32	100
33	100
34	81
35	69
36	60
37	52
38	60
39	69
40	81
41	100
42	81
43	69
44	60
45	52
46	47
47	52
48	60
49	69
50	81
51	81
52	69
53	60
54	52
55	47
56	42
57	47
58	52
59	60
60	69
61	81
62	69
63	60
64	52
65	47
66	42
67	39
68	42
69	47
70	52
71	60
72	69
73	69
74	60
75	52
76	47
77	42
78	39
79	36
80	39
81	42
82	47
83	52
84	60
85	69
86	60
87	52
88	47
89	42
90	39
91	36
92	33
93	36
94	39
95	42
96	47
97	52
98	60
99	60
100	52
101	47
102	42
103	39
104	36
105	33
106	31
107	33
108	36
109	39
110	42
111	47
112	52
113	60
114	52
115	47
116	42
117	39
118	36
119	33
120	31
121	29
122	31
123	33
124	36
125	39
126	42
127	47
128	52
129	52
130	47
131	42
132	39
133	36
134	33
135	31
136	29
137	29
138	31
139	33
140	36
141	39
142	42
143	47
144	52
145	47
146	42
147	39
148	36
149	33
150	31
151	29
152	29
153	31
154	33
155	36
156	39
157	42
158	47
159	47
160	42
161	39
162	36
163	33
164	31
165	29
166	29
167	31
168	33
169	36
170	39
171	42
172	47
173	42
174	39
175	36
176	33
177	31
178	29
179	29
180	31
181	33
182	36
183	39
184	42
185	42
186	39
187	36
188	33
189	31
190	29
191	29
192	31
193	33
194	36
195	39
196	42
197	39
198	36
199	33
200	31
201	29
202	29
203	31
204	33
205	36
206	39
207	39
208	36
209	33
210	31
211	29
212	29
213	31
214	33
215	36
216	39
217	36
218	33
219	31
220	29
221	29
222	31
223	33
224	36
225	36
226	33
227	31
228	29
229	29
230	31
231	33
232	36
233	33
234	31
235	29
236	29
237	31
238	33
239	33
240	31
241	29
242	29
243	31
244	33
245	31
246	29
247	29
248	31
249	31
250	29
251	29
252	31
253	29
254	29
255	29
256	29
DEPOT_SECTION
1
-1
EOF
