experiment/data/hgs-res/Vrp-Set-Golden-n256/Vrp-Set-Golden-n256-hgs/0.hgs1.tour
Route #1: 14 20 27 35 44 54 65 77 90 104 119 135 150 134 118 103 89 76 64 53 43
Route #2: 8 13 9 5 2
Route #3: 52 63 75 88 102 117 133 149 164 177 189 200 210 199 188 176 163 148 132 116 101 87 74 62 33
Route #4: 73 99 114 130 145 160 174 186 198 208 218 226 234 227 219 209 187 175 162 147 161 146 131 115 100 86
Route #5: 18 25 41 50 60 72 61 51 42 34 26 19
Route #6: 129 159 173 197 217 225 233 240 245 249 252 254 255 253 250 247 251 248 244 239 232 216 207 185 172 144 113 85
Route #7: 98 128 158 171 184 196 206 215 224 231 238 243 237 230 223 214 205 195 183 157 143 112 84
Route #8: 12 24 32 40 49 39 31 23 17
Route #9: 71 97 127 142 170 194 204 222 229 236 242 246 241 235 228 220 211 201 191 180 154 140 124 109 95 82
Route #10: 48 70 96 110 125 141 155 168 181 192 202 212 221 213 203 193 182 169 156 126 111 83 59
Route #11: 1 4
Route #12: 30 58 69 81 94 108 123 139 167 179 190 178 166 153 138 122 107 93 80 68 57 47 38
Route #13: 3 6 10 15 22 16 11 7
Route #14: 21 28 36 45 55 66 78 91 105 120 136 151 165 152 137 121 106 92 79 67 56 46 37 29
Cost 582.467
